(set-logic QF_NRA)
(set-info :source |Benchmarks generated from hycomp (https://es-static.fbk.eu/tools/hycomp/). BMC instances of non-linear hybrid automata taken from: Alessandro Cimatti, Sergio Mover, Stefano Tonetta, A quantifier-free SMT encoding of non-linear hybrid automata, FMCAD 2012 and Alessandro Cimatti, Sergio Mover, Stefano Tonetta, Quantier-free encoding of invariants for Hybrid Systems, Formal Methods in System Design. This instance solves a BMC problem of depth 3 and uses the quantifier free encoding encoding. Contacts: Sergio Mover (mover@fbk.eu), Stefano Tonetta (tonettas@fbk.eu), Alessandro Cimatti (cimatti@fbk.eu).|)
(set-info :smt-lib-version 2.0)
(set-info :category "industrial")
(set-info :status unsat)
;; MathSAT API call trace
;; generated on Mon Mar 19 10:41:00 2012
(declare-fun b.event_is_timed__AT3 () Bool)
(declare-fun b.bool_atom__AT2 () Bool)
(declare-fun b.time__AT2 () Real)
(declare-fun b.x__AT2 () Real)
(declare-fun b.y__AT0 () Real)
(declare-fun b.delta__AT2 () Real)
(declare-fun b.EVENT.0__AT2 () Bool)
(declare-fun b.counter.0__AT0 () Bool)
(declare-fun b.EVENT.1__AT2 () Bool)
(declare-fun b.y__AT3 () Real)
(declare-fun b.EVENT.0__AT0 () Bool)
(declare-fun b.counter.3__AT0 () Bool)
(declare-fun b.counter.1__AT0 () Bool)
(declare-fun b.event_is_timed__AT1 () Bool)
(declare-fun b.counter.0__AT3 () Bool)
(declare-fun b.bool_atom__AT1 () Bool)
(declare-fun b.counter.1__AT3 () Bool)
(declare-fun b.x__AT3 () Real)
(declare-fun b.speed_y__AT2 () Real)
(declare-fun b.counter.2__AT3 () Bool)
(declare-fun b.EVENT.1__AT3 () Bool)
(declare-fun b.counter.3__AT3 () Bool)
(declare-fun b.bool_atom__AT3 () Bool)
(declare-fun b.g__AT0 () Real)
(declare-fun b.speed_y__AT0 () Real)
(declare-fun b.x__AT1 () Real)
(declare-fun b.speed_y__AT3 () Real)
(declare-fun b.y__AT1 () Real)
(declare-fun b.counter.2__AT0 () Bool)
(declare-fun b.counter.0__AT1 () Bool)
(declare-fun b.counter.1__AT1 () Bool)
(declare-fun b.counter.2__AT1 () Bool)
(declare-fun b.event_is_timed__AT0 () Bool)
(declare-fun b.time__AT3 () Real)
(declare-fun b.counter.3__AT1 () Bool)
(declare-fun b.bool_atom__AT0 () Bool)
(declare-fun b.delta__AT3 () Real)
(declare-fun b.x__AT0 () Real)
(declare-fun b.EVENT.0__AT3 () Bool)
(declare-fun b.counter.0__AT2 () Bool)
(declare-fun b.delta__AT1 () Real)
(declare-fun b.counter.1__AT2 () Bool)
(declare-fun b.speed_y__AT1 () Real)
(declare-fun b.time__AT1 () Real)
(declare-fun b.event_is_timed__AT2 () Bool)
(declare-fun b.EVENT.0__AT1 () Bool)
(declare-fun b.counter.2__AT2 () Bool)
(declare-fun b.time__AT0 () Real)
(declare-fun b.EVENT.1__AT1 () Bool)
(declare-fun b.counter.3__AT2 () Bool)
(declare-fun b.delta__AT0 () Real)
(declare-fun b.EVENT.1__AT0 () Bool)
(declare-fun b.y__AT2 () Real)
(assert (let ((.def_66 (* (- 1.0) b.g__AT0)))
(let ((.def_69 (* (/ 1 2) .def_66)))
(let ((.def_82 (* 2.0 .def_69)))
(let ((.def_88 (* (- 1.0) .def_82)))
(let ((.def_639 (* .def_88 b.delta__AT3)))
(let ((.def_640 (<= b.speed_y__AT3 .def_639)))
(let ((.def_638 (<= b.speed_y__AT3 0.0 )))
(let ((.def_641 (and .def_638 .def_640)))
(let ((.def_634 (* .def_82 b.delta__AT3)))
(let ((.def_635 (+ b.speed_y__AT3 .def_634)))
(let ((.def_636 (<= 0.0 .def_635)))
(let ((.def_633 (<= 0.0 b.speed_y__AT3)))
(let ((.def_637 (and .def_633 .def_636)))
(let ((.def_642 (or .def_637 .def_641)))
(let ((.def_624 (* b.speed_y__AT3 b.delta__AT3)))
(let ((.def_622 (* b.delta__AT3 b.delta__AT3)))
(let ((.def_623 (* .def_69 .def_622)))
(let ((.def_625 (+ .def_623 .def_624)))
(let ((.def_610 (* (- 1.0) b.x__AT3)))
(let ((.def_611 (* b.x__AT3 .def_610)))
(let ((.def_626 (* (- 1.0) .def_611)))
(let ((.def_629 (+ .def_626 .def_625)))
(let ((.def_630 (+ b.y__AT3 .def_629)))
(let ((.def_631 (<= 0.0 .def_630)))
(let ((.def_612 (<= .def_611 b.y__AT3)))
(let ((.def_632 (and .def_612 .def_631)))
(let ((.def_643 (and .def_632 .def_642)))
(let ((.def_58 (<= b.g__AT0 10.0 )))
(let ((.def_57 (<= 8.0 b.g__AT0)))
(let ((.def_59 (and .def_57 .def_58)))
(let ((.def_644 (and .def_59 .def_643)))
(let ((.def_348 (not b.counter.0__AT2)))
(let ((.def_616 (or b.counter.1__AT2 .def_348)))
(let ((.def_343 (not b.counter.2__AT2)))
(let ((.def_617 (or .def_343 .def_616)))
(let ((.def_618 (or b.counter.3__AT2 .def_617)))
(let ((.def_613 (and .def_59 .def_612)))
(let ((.def_607 (not b.EVENT.0__AT3)))
(let ((.def_605 (not b.EVENT.1__AT3)))
(let ((.def_608 (or .def_605 .def_607)))
(let ((.def_519 (not b.counter.1__AT3)))
(let ((.def_4 (not b.counter.0__AT3)))
(let ((.def_598 (or .def_4 .def_519)))
(let ((.def_602 (or b.counter.3__AT3 .def_598)))
(let ((.def_599 (or b.counter.2__AT3 .def_598)))
(let ((.def_8 (not b.counter.2__AT3)))
(let ((.def_597 (or .def_4 .def_8)))
(let ((.def_600 (and .def_597 .def_599)))
(let ((.def_536 (not b.counter.3__AT3)))
(let ((.def_601 (or .def_536 .def_600)))
(let ((.def_603 (and .def_601 .def_602)))
(let ((.def_609 (and .def_603 .def_608)))
(let ((.def_614 (and .def_609 .def_613)))
(let ((.def_592 (<= 0.0 b.delta__AT2)))
(let ((.def_428 (not b.EVENT.0__AT2)))
(let ((.def_426 (not b.EVENT.1__AT2)))
(let ((.def_467 (and .def_426 .def_428)))
(let ((.def_469 (not .def_467)))
(let ((.def_593 (or .def_469 .def_592)))
(let ((.def_594 (or b.EVENT.1__AT2 .def_593)))
(let ((.def_504 (= b.bool_atom__AT2 b.bool_atom__AT3)))
(let ((.def_500 (= b.counter.0__AT3 b.counter.0__AT2)))
(let ((.def_498 (= b.counter.1__AT3 b.counter.1__AT2)))
(let ((.def_496 (= b.counter.2__AT3 b.counter.2__AT2)))
(let ((.def_495 (= b.counter.3__AT3 b.counter.3__AT2)))
(let ((.def_497 (and .def_495 .def_496)))
(let ((.def_499 (and .def_497 .def_498)))
(let ((.def_501 (and .def_499 .def_500)))
(let ((.def_588 (and .def_501 .def_504)))
(let ((.def_589 (or .def_469 .def_588)))
(let ((.def_590 (or b.EVENT.1__AT2 .def_589)))
(let ((.def_577 (* .def_66 b.delta__AT2)))
(let ((.def_578 (* (- 1.0) b.speed_y__AT3)))
(let ((.def_581 (+ .def_578 .def_577)))
(let ((.def_582 (+ b.speed_y__AT2 .def_581)))
(let ((.def_583 (= .def_582 0.0 )))
(let ((.def_568 (* (- 1.0) b.y__AT3)))
(let ((.def_445 (* b.speed_y__AT2 b.delta__AT2)))
(let ((.def_572 (+ .def_445 .def_568)))
(let ((.def_443 (* b.delta__AT2 b.delta__AT2)))
(let ((.def_444 (* .def_69 .def_443)))
(let ((.def_573 (+ .def_444 .def_572)))
(let ((.def_574 (+ b.y__AT2 .def_573)))
(let ((.def_575 (= .def_574 0.0 )))
(let ((.def_487 (= b.x__AT2 b.x__AT3)))
(let ((.def_576 (and .def_487 .def_575)))
(let ((.def_584 (and .def_576 .def_583)))
(let ((.def_585 (or .def_469 .def_584)))
(let ((.def_490 (= b.y__AT2 b.y__AT3)))
(let ((.def_563 (and .def_487 .def_490)))
(let ((.def_493 (= b.speed_y__AT2 b.speed_y__AT3)))
(let ((.def_564 (and .def_493 .def_563)))
(let ((.def_560 (= b.delta__AT2 0.0 )))
(let ((.def_561 (and .def_467 .def_560)))
(let ((.def_562 (not .def_561)))
(let ((.def_565 (or .def_562 .def_564)))
(let ((.def_566 (or b.EVENT.1__AT2 .def_565)))
(let ((.def_553 (and .def_493 .def_501)))
(let ((.def_554 (or b.bool_atom__AT2 .def_553)))
(let ((.def_528 (or .def_4 b.counter.0__AT2)))
(let ((.def_527 (or b.counter.0__AT3 .def_348)))
(let ((.def_529 (and .def_527 .def_528)))
(let ((.def_530 (and .def_519 .def_529)))
(let ((.def_531 (or b.counter.1__AT2 .def_530)))
(let ((.def_338 (not b.counter.1__AT2)))
(let ((.def_526 (or b.counter.1__AT3 .def_338)))
(let ((.def_532 (and .def_526 .def_531)))
(let ((.def_544 (and .def_8 .def_532)))
(let ((.def_545 (or b.counter.2__AT2 .def_544)))
(let ((.def_539 (and .def_348 .def_519)))
(let ((.def_540 (or b.counter.1__AT2 .def_539)))
(let ((.def_541 (and .def_526 .def_540)))
(let ((.def_542 (and b.counter.2__AT3 .def_541)))
(let ((.def_543 (or .def_343 .def_542)))
(let ((.def_546 (and .def_543 .def_545)))
(let ((.def_547 (and b.counter.3__AT3 .def_546)))
(let ((.def_548 (or b.counter.3__AT2 .def_547)))
(let ((.def_533 (and b.counter.2__AT3 .def_532)))
(let ((.def_534 (or b.counter.2__AT2 .def_533)))
(let ((.def_522 (or b.counter.1__AT3 b.counter.1__AT2)))
(let ((.def_520 (and b.counter.0__AT3 .def_519)))
(let ((.def_521 (or .def_338 .def_520)))
(let ((.def_523 (and .def_521 .def_522)))
(let ((.def_524 (and .def_8 .def_523)))
(let ((.def_525 (or .def_343 .def_524)))
(let ((.def_535 (and .def_525 .def_534)))
(let ((.def_537 (and .def_535 .def_536)))
(let ((.def_357 (not b.counter.3__AT2)))
(let ((.def_538 (or .def_357 .def_537)))
(let ((.def_549 (and .def_538 .def_548)))
(let ((.def_516 (* b.speed_y__AT3 b.speed_y__AT3)))
(let ((.def_335 (* b.speed_y__AT2 b.speed_y__AT2)))
(let ((.def_517 (= .def_335 .def_516)))
(let ((.def_514 (+ b.speed_y__AT2 b.speed_y__AT3)))
(let ((.def_515 (= .def_514 0.0 )))
(let ((.def_518 (and .def_515 .def_517)))
(let ((.def_550 (and .def_518 .def_549)))
(let ((.def_513 (not b.bool_atom__AT2)))
(let ((.def_551 (or .def_513 .def_550)))
(let ((.def_454 (<= 0.0 b.speed_y__AT2)))
(let ((.def_510 (not .def_454)))
(let ((.def_431 (* (- 1.0) b.x__AT2)))
(let ((.def_432 (* b.x__AT2 .def_431)))
(let ((.def_509 (= b.y__AT2 .def_432)))
(let ((.def_511 (and .def_509 .def_510)))
(let ((.def_512 (= b.bool_atom__AT2 .def_511)))
(let ((.def_552 (and .def_512 .def_551)))
(let ((.def_555 (and .def_552 .def_554)))
(let ((.def_556 (and .def_487 .def_555)))
(let ((.def_557 (and .def_490 .def_556)))
(let ((.def_558 (or .def_467 .def_557)))
(let ((.def_559 (or b.EVENT.1__AT2 .def_558)))
(let ((.def_567 (and .def_559 .def_566)))
(let ((.def_586 (and .def_567 .def_585)))
(let ((.def_474 (= b.time__AT2 b.time__AT3)))
(let ((.def_488 (and .def_474 .def_487)))
(let ((.def_491 (and .def_488 .def_490)))
(let ((.def_494 (and .def_491 .def_493)))
(let ((.def_502 (and .def_494 .def_501)))
(let ((.def_505 (and .def_502 .def_504)))
(let ((.def_506 (or .def_426 .def_505)))
(let ((.def_477 (* (- 1.0) b.time__AT3)))
(let ((.def_480 (+ b.delta__AT2 .def_477)))
(let ((.def_481 (+ b.time__AT2 .def_480)))
(let ((.def_482 (= .def_481 0.0 )))
(let ((.def_483 (or .def_469 .def_482)))
(let ((.def_484 (or b.EVENT.1__AT2 .def_483)))
(let ((.def_475 (or .def_467 .def_474)))
(let ((.def_476 (or b.EVENT.1__AT2 .def_475)))
(let ((.def_485 (and .def_476 .def_484)))
(let ((.def_507 (and .def_485 .def_506)))
(let ((.def_471 (= .def_469 b.event_is_timed__AT3)))
(let ((.def_468 (= b.event_is_timed__AT2 .def_467)))
(let ((.def_472 (and .def_468 .def_471)))
(let ((.def_508 (and .def_472 .def_507)))
(let ((.def_587 (and .def_508 .def_586)))
(let ((.def_591 (and .def_587 .def_590)))
(let ((.def_595 (and .def_591 .def_594)))
(let ((.def_596 (and .def_426 .def_595)))
(let ((.def_615 (and .def_596 .def_614)))
(let ((.def_619 (and .def_615 .def_618)))
(let ((.def_460 (* .def_88 b.delta__AT2)))
(let ((.def_461 (<= b.speed_y__AT2 .def_460)))
(let ((.def_459 (<= b.speed_y__AT2 0.0 )))
(let ((.def_462 (and .def_459 .def_461)))
(let ((.def_455 (* .def_82 b.delta__AT2)))
(let ((.def_456 (+ b.speed_y__AT2 .def_455)))
(let ((.def_457 (<= 0.0 .def_456)))
(let ((.def_458 (and .def_454 .def_457)))
(let ((.def_463 (or .def_458 .def_462)))
(let ((.def_446 (+ .def_444 .def_445)))
(let ((.def_447 (* (- 1.0) .def_432)))
(let ((.def_450 (+ .def_447 .def_446)))
(let ((.def_451 (+ b.y__AT2 .def_450)))
(let ((.def_452 (<= 0.0 .def_451)))
(let ((.def_433 (<= .def_432 b.y__AT2)))
(let ((.def_453 (and .def_433 .def_452)))
(let ((.def_464 (and .def_453 .def_463)))
(let ((.def_465 (and .def_59 .def_464)))
(let ((.def_164 (not b.counter.0__AT1)))
(let ((.def_437 (or b.counter.1__AT1 .def_164)))
(let ((.def_159 (not b.counter.2__AT1)))
(let ((.def_438 (or .def_159 .def_437)))
(let ((.def_439 (or b.counter.3__AT1 .def_438)))
(let ((.def_434 (and .def_59 .def_433)))
(let ((.def_429 (or .def_426 .def_428)))
(let ((.def_419 (or .def_338 .def_348)))
(let ((.def_423 (or b.counter.3__AT2 .def_419)))
(let ((.def_420 (or b.counter.2__AT2 .def_419)))
(let ((.def_418 (or .def_343 .def_348)))
(let ((.def_421 (and .def_418 .def_420)))
(let ((.def_422 (or .def_357 .def_421)))
(let ((.def_424 (and .def_422 .def_423)))
(let ((.def_430 (and .def_424 .def_429)))
(let ((.def_435 (and .def_430 .def_434)))
(let ((.def_413 (<= 0.0 b.delta__AT1)))
(let ((.def_243 (not b.EVENT.0__AT1)))
(let ((.def_241 (not b.EVENT.1__AT1)))
(let ((.def_282 (and .def_241 .def_243)))
(let ((.def_284 (not .def_282)))
(let ((.def_414 (or .def_284 .def_413)))
(let ((.def_415 (or b.EVENT.1__AT1 .def_414)))
(let ((.def_323 (= b.bool_atom__AT1 b.bool_atom__AT2)))
(let ((.def_319 (= b.counter.0__AT1 b.counter.0__AT2)))
(let ((.def_316 (= b.counter.1__AT1 b.counter.1__AT2)))
(let ((.def_313 (= b.counter.2__AT1 b.counter.2__AT2)))
(let ((.def_311 (= b.counter.3__AT1 b.counter.3__AT2)))
(let ((.def_314 (and .def_311 .def_313)))
(let ((.def_317 (and .def_314 .def_316)))
(let ((.def_320 (and .def_317 .def_319)))
(let ((.def_409 (and .def_320 .def_323)))
(let ((.def_410 (or .def_284 .def_409)))
(let ((.def_411 (or b.EVENT.1__AT1 .def_410)))
(let ((.def_398 (* .def_66 b.delta__AT1)))
(let ((.def_399 (* (- 1.0) b.speed_y__AT2)))
(let ((.def_402 (+ .def_399 .def_398)))
(let ((.def_403 (+ b.speed_y__AT1 .def_402)))
(let ((.def_404 (= .def_403 0.0 )))
(let ((.def_389 (* (- 1.0) b.y__AT2)))
(let ((.def_260 (* b.speed_y__AT1 b.delta__AT1)))
(let ((.def_393 (+ .def_260 .def_389)))
(let ((.def_258 (* b.delta__AT1 b.delta__AT1)))
(let ((.def_259 (* .def_69 .def_258)))
(let ((.def_394 (+ .def_259 .def_393)))
(let ((.def_395 (+ b.y__AT1 .def_394)))
(let ((.def_396 (= .def_395 0.0 )))
(let ((.def_302 (= b.x__AT1 b.x__AT2)))
(let ((.def_397 (and .def_302 .def_396)))
(let ((.def_405 (and .def_397 .def_404)))
(let ((.def_406 (or .def_284 .def_405)))
(let ((.def_305 (= b.y__AT1 b.y__AT2)))
(let ((.def_384 (and .def_302 .def_305)))
(let ((.def_308 (= b.speed_y__AT1 b.speed_y__AT2)))
(let ((.def_385 (and .def_308 .def_384)))
(let ((.def_381 (= b.delta__AT1 0.0 )))
(let ((.def_382 (and .def_282 .def_381)))
(let ((.def_383 (not .def_382)))
(let ((.def_386 (or .def_383 .def_385)))
(let ((.def_387 (or b.EVENT.1__AT1 .def_386)))
(let ((.def_374 (and .def_308 .def_320)))
(let ((.def_375 (or b.bool_atom__AT1 .def_374)))
(let ((.def_349 (or b.counter.0__AT1 .def_348)))
(let ((.def_347 (or .def_164 b.counter.0__AT2)))
(let ((.def_350 (and .def_347 .def_349)))
(let ((.def_351 (and .def_338 .def_350)))
(let ((.def_352 (or b.counter.1__AT1 .def_351)))
(let ((.def_154 (not b.counter.1__AT1)))
(let ((.def_346 (or .def_154 b.counter.1__AT2)))
(let ((.def_353 (and .def_346 .def_352)))
(let ((.def_365 (and .def_343 .def_353)))
(let ((.def_366 (or b.counter.2__AT1 .def_365)))
(let ((.def_360 (and .def_164 .def_338)))
(let ((.def_361 (or b.counter.1__AT1 .def_360)))
(let ((.def_362 (and .def_346 .def_361)))
(let ((.def_363 (and b.counter.2__AT2 .def_362)))
(let ((.def_364 (or .def_159 .def_363)))
(let ((.def_367 (and .def_364 .def_366)))
(let ((.def_368 (and b.counter.3__AT2 .def_367)))
(let ((.def_369 (or b.counter.3__AT1 .def_368)))
(let ((.def_354 (and b.counter.2__AT2 .def_353)))
(let ((.def_355 (or b.counter.2__AT1 .def_354)))
(let ((.def_341 (or b.counter.1__AT1 b.counter.1__AT2)))
(let ((.def_339 (and b.counter.0__AT2 .def_338)))
(let ((.def_340 (or .def_154 .def_339)))
(let ((.def_342 (and .def_340 .def_341)))
(let ((.def_344 (and .def_342 .def_343)))
(let ((.def_345 (or .def_159 .def_344)))
(let ((.def_356 (and .def_345 .def_355)))
(let ((.def_358 (and .def_356 .def_357)))
(let ((.def_173 (not b.counter.3__AT1)))
(let ((.def_359 (or .def_173 .def_358)))
(let ((.def_370 (and .def_359 .def_369)))
(let ((.def_150 (* b.speed_y__AT1 b.speed_y__AT1)))
(let ((.def_336 (= .def_150 .def_335)))
(let ((.def_333 (+ b.speed_y__AT1 b.speed_y__AT2)))
(let ((.def_334 (= .def_333 0.0 )))
(let ((.def_337 (and .def_334 .def_336)))
(let ((.def_371 (and .def_337 .def_370)))
(let ((.def_332 (not b.bool_atom__AT1)))
(let ((.def_372 (or .def_332 .def_371)))
(let ((.def_269 (<= 0.0 b.speed_y__AT1)))
(let ((.def_329 (not .def_269)))
(let ((.def_246 (* (- 1.0) b.x__AT1)))
(let ((.def_247 (* b.x__AT1 .def_246)))
(let ((.def_328 (= b.y__AT1 .def_247)))
(let ((.def_330 (and .def_328 .def_329)))
(let ((.def_331 (= b.bool_atom__AT1 .def_330)))
(let ((.def_373 (and .def_331 .def_372)))
(let ((.def_376 (and .def_373 .def_375)))
(let ((.def_377 (and .def_302 .def_376)))
(let ((.def_378 (and .def_305 .def_377)))
(let ((.def_379 (or .def_282 .def_378)))
(let ((.def_380 (or b.EVENT.1__AT1 .def_379)))
(let ((.def_388 (and .def_380 .def_387)))
(let ((.def_407 (and .def_388 .def_406)))
(let ((.def_289 (= b.time__AT1 b.time__AT2)))
(let ((.def_303 (and .def_289 .def_302)))
(let ((.def_306 (and .def_303 .def_305)))
(let ((.def_309 (and .def_306 .def_308)))
(let ((.def_321 (and .def_309 .def_320)))
(let ((.def_324 (and .def_321 .def_323)))
(let ((.def_325 (or .def_241 .def_324)))
(let ((.def_292 (* (- 1.0) b.time__AT2)))
(let ((.def_295 (+ b.delta__AT1 .def_292)))
(let ((.def_296 (+ b.time__AT1 .def_295)))
(let ((.def_297 (= .def_296 0.0 )))
(let ((.def_298 (or .def_284 .def_297)))
(let ((.def_299 (or b.EVENT.1__AT1 .def_298)))
(let ((.def_290 (or .def_282 .def_289)))
(let ((.def_291 (or b.EVENT.1__AT1 .def_290)))
(let ((.def_300 (and .def_291 .def_299)))
(let ((.def_326 (and .def_300 .def_325)))
(let ((.def_286 (= .def_284 b.event_is_timed__AT2)))
(let ((.def_283 (= b.event_is_timed__AT1 .def_282)))
(let ((.def_287 (and .def_283 .def_286)))
(let ((.def_327 (and .def_287 .def_326)))
(let ((.def_408 (and .def_327 .def_407)))
(let ((.def_412 (and .def_408 .def_411)))
(let ((.def_416 (and .def_412 .def_415)))
(let ((.def_417 (and .def_241 .def_416)))
(let ((.def_436 (and .def_417 .def_435)))
(let ((.def_440 (and .def_436 .def_439)))
(let ((.def_275 (* .def_88 b.delta__AT1)))
(let ((.def_276 (<= b.speed_y__AT1 .def_275)))
(let ((.def_274 (<= b.speed_y__AT1 0.0 )))
(let ((.def_277 (and .def_274 .def_276)))
(let ((.def_270 (* .def_82 b.delta__AT1)))
(let ((.def_271 (+ b.speed_y__AT1 .def_270)))
(let ((.def_272 (<= 0.0 .def_271)))
(let ((.def_273 (and .def_269 .def_272)))
(let ((.def_278 (or .def_273 .def_277)))
(let ((.def_261 (+ .def_259 .def_260)))
(let ((.def_262 (* (- 1.0) .def_247)))
(let ((.def_265 (+ .def_262 .def_261)))
(let ((.def_266 (+ b.y__AT1 .def_265)))
(let ((.def_267 (<= 0.0 .def_266)))
(let ((.def_248 (<= .def_247 b.y__AT1)))
(let ((.def_268 (and .def_248 .def_267)))
(let ((.def_279 (and .def_268 .def_278)))
(let ((.def_280 (and .def_59 .def_279)))
(let ((.def_28 (not b.counter.0__AT0)))
(let ((.def_252 (or b.counter.1__AT0 .def_28)))
(let ((.def_31 (not b.counter.2__AT0)))
(let ((.def_253 (or .def_31 .def_252)))
(let ((.def_254 (or b.counter.3__AT0 .def_253)))
(let ((.def_249 (and .def_59 .def_248)))
(let ((.def_244 (or .def_241 .def_243)))
(let ((.def_234 (or .def_154 .def_164)))
(let ((.def_238 (or b.counter.3__AT1 .def_234)))
(let ((.def_235 (or b.counter.2__AT1 .def_234)))
(let ((.def_233 (or .def_159 .def_164)))
(let ((.def_236 (and .def_233 .def_235)))
(let ((.def_237 (or .def_173 .def_236)))
(let ((.def_239 (and .def_237 .def_238)))
(let ((.def_245 (and .def_239 .def_244)))
(let ((.def_250 (and .def_245 .def_249)))
(let ((.def_228 (<= 0.0 b.delta__AT0)))
(let ((.def_47 (not b.EVENT.0__AT0)))
(let ((.def_45 (not b.EVENT.1__AT0)))
(let ((.def_96 (and .def_45 .def_47)))
(let ((.def_98 (not .def_96)))
(let ((.def_229 (or .def_98 .def_228)))
(let ((.def_230 (or b.EVENT.1__AT0 .def_229)))
(let ((.def_138 (= b.bool_atom__AT0 b.bool_atom__AT1)))
(let ((.def_133 (= b.counter.0__AT0 b.counter.0__AT1)))
(let ((.def_130 (= b.counter.1__AT0 b.counter.1__AT1)))
(let ((.def_127 (= b.counter.2__AT0 b.counter.2__AT1)))
(let ((.def_125 (= b.counter.3__AT0 b.counter.3__AT1)))
(let ((.def_128 (and .def_125 .def_127)))
(let ((.def_131 (and .def_128 .def_130)))
(let ((.def_134 (and .def_131 .def_133)))
(let ((.def_224 (and .def_134 .def_138)))
(let ((.def_225 (or .def_98 .def_224)))
(let ((.def_226 (or b.EVENT.1__AT0 .def_225)))
(let ((.def_213 (* b.delta__AT0 .def_66)))
(let ((.def_214 (* (- 1.0) b.speed_y__AT1)))
(let ((.def_217 (+ .def_214 .def_213)))
(let ((.def_218 (+ b.speed_y__AT0 .def_217)))
(let ((.def_219 (= .def_218 0.0 )))
(let ((.def_205 (* (- 1.0) b.y__AT1)))
(let ((.def_72 (* b.delta__AT0 b.speed_y__AT0)))
(let ((.def_208 (+ .def_72 .def_205)))
(let ((.def_65 (* b.delta__AT0 b.delta__AT0)))
(let ((.def_70 (* .def_65 .def_69)))
(let ((.def_209 (+ .def_70 .def_208)))
(let ((.def_210 (+ b.y__AT0 .def_209)))
(let ((.def_211 (= .def_210 0.0 )))
(let ((.def_116 (= b.x__AT0 b.x__AT1)))
(let ((.def_212 (and .def_116 .def_211)))
(let ((.def_220 (and .def_212 .def_219)))
(let ((.def_221 (or .def_98 .def_220)))
(let ((.def_119 (= b.y__AT0 b.y__AT1)))
(let ((.def_200 (and .def_116 .def_119)))
(let ((.def_122 (= b.speed_y__AT0 b.speed_y__AT1)))
(let ((.def_201 (and .def_122 .def_200)))
(let ((.def_197 (= b.delta__AT0 0.0 )))
(let ((.def_198 (and .def_96 .def_197)))
(let ((.def_199 (not .def_198)))
(let ((.def_202 (or .def_199 .def_201)))
(let ((.def_203 (or b.EVENT.1__AT0 .def_202)))
(let ((.def_190 (and .def_122 .def_134)))
(let ((.def_191 (or b.bool_atom__AT0 .def_190)))
(let ((.def_165 (or b.counter.0__AT0 .def_164)))
(let ((.def_163 (or .def_28 b.counter.0__AT1)))
(let ((.def_166 (and .def_163 .def_165)))
(let ((.def_167 (and .def_154 .def_166)))
(let ((.def_168 (or b.counter.1__AT0 .def_167)))
(let ((.def_26 (not b.counter.1__AT0)))
(let ((.def_162 (or .def_26 b.counter.1__AT1)))
(let ((.def_169 (and .def_162 .def_168)))
(let ((.def_181 (and .def_159 .def_169)))
(let ((.def_182 (or b.counter.2__AT0 .def_181)))
(let ((.def_176 (and .def_28 .def_154)))
(let ((.def_177 (or b.counter.1__AT0 .def_176)))
(let ((.def_178 (and .def_162 .def_177)))
(let ((.def_179 (and b.counter.2__AT1 .def_178)))
(let ((.def_180 (or .def_31 .def_179)))
(let ((.def_183 (and .def_180 .def_182)))
(let ((.def_184 (and b.counter.3__AT1 .def_183)))
(let ((.def_185 (or b.counter.3__AT0 .def_184)))
(let ((.def_170 (and b.counter.2__AT1 .def_169)))
(let ((.def_171 (or b.counter.2__AT0 .def_170)))
(let ((.def_157 (or b.counter.1__AT0 b.counter.1__AT1)))
(let ((.def_155 (and b.counter.0__AT1 .def_154)))
(let ((.def_156 (or .def_26 .def_155)))
(let ((.def_158 (and .def_156 .def_157)))
(let ((.def_160 (and .def_158 .def_159)))
(let ((.def_161 (or .def_31 .def_160)))
(let ((.def_172 (and .def_161 .def_171)))
(let ((.def_174 (and .def_172 .def_173)))
(let ((.def_34 (not b.counter.3__AT0)))
(let ((.def_175 (or .def_34 .def_174)))
(let ((.def_186 (and .def_175 .def_185)))
(let ((.def_151 (* b.speed_y__AT0 b.speed_y__AT0)))
(let ((.def_152 (= .def_150 .def_151)))
(let ((.def_148 (+ b.speed_y__AT0 b.speed_y__AT1)))
(let ((.def_149 (= .def_148 0.0 )))
(let ((.def_153 (and .def_149 .def_152)))
(let ((.def_187 (and .def_153 .def_186)))
(let ((.def_147 (not b.bool_atom__AT0)))
(let ((.def_188 (or .def_147 .def_187)))
(let ((.def_81 (<= 0.0 b.speed_y__AT0)))
(let ((.def_144 (not .def_81)))
(let ((.def_52 (* (- 1.0) b.x__AT0)))
(let ((.def_53 (* b.x__AT0 .def_52)))
(let ((.def_143 (= b.y__AT0 .def_53)))
(let ((.def_145 (and .def_143 .def_144)))
(let ((.def_146 (= b.bool_atom__AT0 .def_145)))
(let ((.def_189 (and .def_146 .def_188)))
(let ((.def_192 (and .def_189 .def_191)))
(let ((.def_193 (and .def_116 .def_192)))
(let ((.def_194 (and .def_119 .def_193)))
(let ((.def_195 (or .def_96 .def_194)))
(let ((.def_196 (or b.EVENT.1__AT0 .def_195)))
(let ((.def_204 (and .def_196 .def_203)))
(let ((.def_222 (and .def_204 .def_221)))
(let ((.def_103 (= b.time__AT0 b.time__AT1)))
(let ((.def_117 (and .def_103 .def_116)))
(let ((.def_120 (and .def_117 .def_119)))
(let ((.def_123 (and .def_120 .def_122)))
(let ((.def_135 (and .def_123 .def_134)))
(let ((.def_139 (and .def_135 .def_138)))
(let ((.def_140 (or .def_45 .def_139)))
(let ((.def_106 (* (- 1.0) b.time__AT1)))
(let ((.def_109 (+ b.delta__AT0 .def_106)))
(let ((.def_110 (+ b.time__AT0 .def_109)))
(let ((.def_111 (= .def_110 0.0 )))
(let ((.def_112 (or .def_98 .def_111)))
(let ((.def_113 (or b.EVENT.1__AT0 .def_112)))
(let ((.def_104 (or .def_96 .def_103)))
(let ((.def_105 (or b.EVENT.1__AT0 .def_104)))
(let ((.def_114 (and .def_105 .def_113)))
(let ((.def_141 (and .def_114 .def_140)))
(let ((.def_100 (= .def_98 b.event_is_timed__AT1)))
(let ((.def_97 (= b.event_is_timed__AT0 .def_96)))
(let ((.def_101 (and .def_97 .def_100)))
(let ((.def_142 (and .def_101 .def_141)))
(let ((.def_223 (and .def_142 .def_222)))
(let ((.def_227 (and .def_223 .def_226)))
(let ((.def_231 (and .def_227 .def_230)))
(let ((.def_232 (and .def_45 .def_231)))
(let ((.def_251 (and .def_232 .def_250)))
(let ((.def_255 (and .def_251 .def_254)))
(let ((.def_89 (* b.delta__AT0 .def_88)))
(let ((.def_90 (<= b.speed_y__AT0 .def_89)))
(let ((.def_87 (<= b.speed_y__AT0 0.0 )))
(let ((.def_91 (and .def_87 .def_90)))
(let ((.def_83 (* b.delta__AT0 .def_82)))
(let ((.def_84 (+ b.speed_y__AT0 .def_83)))
(let ((.def_85 (<= 0.0 .def_84)))
(let ((.def_86 (and .def_81 .def_85)))
(let ((.def_92 (or .def_86 .def_91)))
(let ((.def_73 (+ .def_70 .def_72)))
(let ((.def_74 (* (- 1.0) .def_53)))
(let ((.def_77 (+ .def_74 .def_73)))
(let ((.def_78 (+ b.y__AT0 .def_77)))
(let ((.def_79 (<= 0.0 .def_78)))
(let ((.def_54 (<= .def_53 b.y__AT0)))
(let ((.def_80 (and .def_54 .def_79)))
(let ((.def_93 (and .def_80 .def_92)))
(let ((.def_94 (and .def_59 .def_93)))
(let ((.def_60 (and .def_54 .def_59)))
(let ((.def_48 (or .def_45 .def_47)))
(let ((.def_38 (or .def_26 .def_28)))
(let ((.def_42 (or b.counter.3__AT0 .def_38)))
(let ((.def_39 (or b.counter.2__AT0 .def_38)))
(let ((.def_37 (or .def_28 .def_31)))
(let ((.def_40 (and .def_37 .def_39)))
(let ((.def_41 (or .def_34 .def_40)))
(let ((.def_43 (and .def_41 .def_42)))
(let ((.def_49 (and .def_43 .def_48)))
(let ((.def_61 (and .def_49 .def_60)))
(let ((.def_29 (and .def_26 .def_28)))
(let ((.def_32 (and .def_29 .def_31)))
(let ((.def_35 (and .def_32 .def_34)))
(let ((.def_23 (= b.y__AT0 10.0 )))
(let ((.def_19 (= b.x__AT0 0.0 )))
(let ((.def_15 (= b.time__AT0 0.0 )))
(let ((.def_17 (and .def_15 b.event_is_timed__AT0)))
(let ((.def_20 (and .def_17 .def_19)))
(let ((.def_24 (and .def_20 .def_23)))
(let ((.def_36 (and .def_24 .def_35)))
(let ((.def_62 (and .def_36 .def_61)))
(let ((.def_6 (or .def_4 b.counter.1__AT3)))
(let ((.def_9 (or .def_6 .def_8)))
(let ((.def_11 (or .def_9 b.counter.3__AT3)))
(let ((.def_12 (not .def_11)))
(let ((.def_63 (and .def_12 .def_62)))
(let ((.def_95 (and .def_63 .def_94)))
(let ((.def_256 (and .def_95 .def_255)))
(let ((.def_281 (and .def_256 .def_280)))
(let ((.def_441 (and .def_281 .def_440)))
(let ((.def_466 (and .def_441 .def_465)))
(let ((.def_620 (and .def_466 .def_619)))
(let ((.def_645 (and .def_620 .def_644)))
.def_645))))))))))))))))))))))))))))))))))))))))))))))))))))))))))))))))))))))))))))))))))))))))))))))))))))))))))))))))))))))))))))))))))))))))))))))))))))))))))))))))))))))))))))))))))))))))))))))))))))))))))))))))))))))))))))))))))))))))))))))))))))))))))))))))))))))))))))))))))))))))))))))))))))))))))))))))))))))))))))))))))))))))))))))))))))))))))))))))))))))))))))))))))))))))))))))))))))))))))))))))))))))))))))))))))))))))))))))))))))))))))))))))))))))))))))))))))))))))))))))))))))))))))))))))))))))))))))))))))))))))))))))))))))))))))))))))))))))))))))
(check-sat)
(exit)
